(declare-sort Loc 0)
(declare-const l0 Loc)
(declare-const l1 Loc)
(declare-const l2 Loc)
(declare-const l3 Loc)
(declare-const l4 Loc)
(declare-const l5 Loc)
(declare-const l6 Loc)
(declare-const l7 Loc)
(declare-const l8 Loc)
(declare-const l9 Loc)
(declare-const l10 Loc)
(declare-const l11 Loc)
(declare-const l12 Loc)
(declare-const l13 Loc)
(declare-const l14 Loc)
(declare-const l15 Loc)
(declare-const l16 Loc)
(declare-const l17 Loc)
(declare-const l18 Loc)
(assert (distinct l0 l1 l2 l3 l4 l5 l6 l7 l8 l9 l10 l11 l12 l13 l14 l15 l16 l17 l18))

(define-fun cfg_init ( (pc Loc) (src Loc) (rel Bool) ) Bool
  (and (= pc src) rel))

(define-fun cfg_trans2 ( (pc Loc) (src Loc)
                         (pc1 Loc) (dst Loc)
                         (rel Bool) ) Bool
  (and (= pc src) (= pc1 dst) rel))

(define-fun cfg_trans3 ( (pc Loc) (exit Loc)
                         (pc1 Loc) (call Loc)
                         (pc2 Loc) (return Loc)
                         (rel Bool) ) Bool
  (and (= pc exit) (= pc1 call) (= pc2 return) rel))

(define-fun init_main ( (pc^0 Loc) (j^0 Int) (k^0 Int) (m1^0 Int) (m2^0 Int) (m^0 Int) (n^0 Int) (pp^0 Int) (pt1^0 Int) (pt2^0 Int) (qq^0 Int) (qt1^0 Int) (qt2^0 Int) (sd^0 Int) (sgd^0 Int) (sgn^0 Int) (shn^0 Int) (sxn^0 Int) (tmp^0 Int) ) Bool
  (cfg_init pc^0 l18 true))

(define-fun next_main (
                 (pc^0 Loc) (j^0 Int) (k^0 Int) (m1^0 Int) (m2^0 Int) (m^0 Int) (n^0 Int) (pp^0 Int) (pt1^0 Int) (pt2^0 Int) (qq^0 Int) (qt1^0 Int) (qt2^0 Int) (sd^0 Int) (sgd^0 Int) (sgn^0 Int) (shn^0 Int) (sxn^0 Int) (tmp^0 Int)
                 (pc^post Loc) (j^post Int) (k^post Int) (m1^post Int) (m2^post Int) (m^post Int) (n^post Int) (pp^post Int) (pt1^post Int) (pt2^post Int) (qq^post Int) (qt1^post Int) (qt2^post Int) (sd^post Int) (sgd^post Int) (sgn^post Int) (shn^post Int) (sxn^post Int) (tmp^post Int)
             ) Bool
  (or
    (cfg_trans2 pc^0 l0 pc^post l1 (and (and (and (and (and (and (and (and (and (and (and (and (and (and (and (and (and (and (<= 2 (+ 0 n^0)) (= j^0 j^post)) (= k^0 k^post)) (= m^0 m^post)) (= m1^0 m1^post)) (= m2^0 m2^post)) (= n^0 n^post)) (= pp^0 pp^post)) (= pt1^0 pt1^post)) (= pt2^0 pt2^post)) (= qq^0 qq^post)) (= qt1^0 qt1^post)) (= qt2^0 qt2^post)) (= sd^0 sd^post)) (= sgd^0 sgd^post)) (= sgn^0 sgn^post)) (= shn^0 shn^post)) (= sxn^0 sxn^post)) (= tmp^0 tmp^post)))
    (cfg_trans2 pc^0 l0 pc^post l1 (and (and (and (and (and (and (and (and (and (and (and (and (and (and (and (and (and (and (<= (+ 1 n^0) 1) (= j^0 j^post)) (= k^0 k^post)) (= m^0 m^post)) (= m1^0 m1^post)) (= m2^0 m2^post)) (= n^0 n^post)) (= pp^0 pp^post)) (= pt1^0 pt1^post)) (= pt2^0 pt2^post)) (= qq^0 qq^post)) (= qt1^0 qt1^post)) (= qt2^0 qt2^post)) (= sd^0 sd^post)) (= sgd^0 sgd^post)) (= sgn^0 sgn^post)) (= shn^0 shn^post)) (= sxn^0 sxn^post)) (= tmp^0 tmp^post)))
    (cfg_trans2 pc^0 l0 pc^post l2 (and (and (and (and (and (and (and (and (and (and (and (and (and (and (and (and (and (and (and (<= (+ 0 n^0) 1) (<= 1 (+ 0 n^0))) (= j^0 j^post)) (= k^0 k^post)) (= m^0 m^post)) (= m1^0 m1^post)) (= m2^0 m2^post)) (= n^0 n^post)) (= pp^0 pp^post)) (= pt1^0 pt1^post)) (= pt2^0 pt2^post)) (= qq^0 qq^post)) (= qt1^0 qt1^post)) (= qt2^0 qt2^post)) (= sd^0 sd^post)) (= sgd^0 sgd^post)) (= sgn^0 sgn^post)) (= shn^0 shn^post)) (= sxn^0 sxn^post)) (= tmp^0 tmp^post)))
    (cfg_trans2 pc^0 l3 pc^post l4 (and (and (and (and (and (and (and (and (and (and (and (and (and (and (and (and (and (and (<= (+ 1 m2^0) (+ 0 j^0)) (= m^post (+ 1 m^0))) (= j^0 j^post)) (= k^0 k^post)) (= m1^0 m1^post)) (= m2^0 m2^post)) (= n^0 n^post)) (= pp^0 pp^post)) (= pt1^0 pt1^post)) (= pt2^0 pt2^post)) (= qq^0 qq^post)) (= qt1^0 qt1^post)) (= qt2^0 qt2^post)) (= sd^0 sd^post)) (= sgd^0 sgd^post)) (= sgn^0 sgn^post)) (= shn^0 shn^post)) (= sxn^0 sxn^post)) (= tmp^0 tmp^post)))
    (cfg_trans2 pc^0 l3 pc^post l5 (and (and (and (and (and (and (and (and (and (and (and (and (and (and (and (and (and (and (<= (+ 0 j^0) (+ 0 m2^0)) (= pt1^post pt1^post)) (= pt2^post pt2^post)) (= qt1^post qt1^post)) (= qt2^post qt2^post)) (= tmp^post (+ 0 k^0))) (= k^post (+ -1 k^0))) (= j^post (+ 1 j^0))) (= m^0 m^post)) (= m1^0 m1^post)) (= m2^0 m2^post)) (= n^0 n^post)) (= pp^0 pp^post)) (= qq^0 qq^post)) (= sd^0 sd^post)) (= sgd^0 sgd^post)) (= sgn^0 sgn^post)) (= shn^0 shn^post)) (= sxn^0 sxn^post)))
    (cfg_trans2 pc^0 l4 pc^post l6 (and (and (and (and (and (and (and (and (and (and (and (and (and (and (and (and (and (= j^0 j^post) (= k^0 k^post)) (= m^0 m^post)) (= m1^0 m1^post)) (= m2^0 m2^post)) (= n^0 n^post)) (= pp^0 pp^post)) (= pt1^0 pt1^post)) (= pt2^0 pt2^post)) (= qq^0 qq^post)) (= qt1^0 qt1^post)) (= qt2^0 qt2^post)) (= sd^0 sd^post)) (= sgd^0 sgd^post)) (= sgn^0 sgn^post)) (= shn^0 shn^post)) (= sxn^0 sxn^post)) (= tmp^0 tmp^post)))
    (cfg_trans2 pc^0 l7 pc^post l8 (and (and (and (and (and (and (and (and (and (and (and (and (and (and (and (and (and (= j^0 j^post) (= k^0 k^post)) (= m^0 m^post)) (= m1^0 m1^post)) (= m2^0 m2^post)) (= n^0 n^post)) (= pp^0 pp^post)) (= pt1^0 pt1^post)) (= pt2^0 pt2^post)) (= qq^0 qq^post)) (= qt1^0 qt1^post)) (= qt2^0 qt2^post)) (= sd^0 sd^post)) (= sgd^0 sgd^post)) (= sgn^0 sgn^post)) (= shn^0 shn^post)) (= sxn^0 sxn^post)) (= tmp^0 tmp^post)))
    (cfg_trans2 pc^0 l9 pc^post l5 (and (and (and (and (and (and (and (and (and (and (and (and (and (and (and (and (and (and (<= (+ 1 m^0) (+ 0 j^0)) (= k^post (+ 0 m^0))) (= m2^post m2^post)) (= pp^post pp^post)) (= qq^post qq^post)) (= j^post 1)) (= m^0 m^post)) (= m1^0 m1^post)) (= n^0 n^post)) (= pt1^0 pt1^post)) (= pt2^0 pt2^post)) (= qt1^0 qt1^post)) (= qt2^0 qt2^post)) (= sd^0 sd^post)) (= sgd^0 sgd^post)) (= sgn^0 sgn^post)) (= shn^0 shn^post)) (= sxn^0 sxn^post)) (= tmp^0 tmp^post)))
    (cfg_trans2 pc^0 l9 pc^post l10 (and (and (and (and (and (and (and (and (and (and (and (and (and (and (and (and (and (and (<= (+ 0 j^0) (+ 0 m^0)) (= sgn^post sgn^post)) (= shn^post shn^post)) (= sgd^post sgd^post)) (= j^post (+ 1 j^0))) (= k^0 k^post)) (= m^0 m^post)) (= m1^0 m1^post)) (= m2^0 m2^post)) (= n^0 n^post)) (= pp^0 pp^post)) (= pt1^0 pt1^post)) (= pt2^0 pt2^post)) (= qq^0 qq^post)) (= qt1^0 qt1^post)) (= qt2^0 qt2^post)) (= sd^0 sd^post)) (= sxn^0 sxn^post)) (= tmp^0 tmp^post)))
    (cfg_trans2 pc^0 l11 pc^post l10 (and (and (and (and (and (and (and (and (and (and (and (and (and (and (and (and (and (= sgn^post sgn^post) (= shn^post shn^post)) (= sgd^post sgd^post)) (= j^post 1)) (= k^0 k^post)) (= m^0 m^post)) (= m1^0 m1^post)) (= m2^0 m2^post)) (= n^0 n^post)) (= pp^0 pp^post)) (= pt1^0 pt1^post)) (= pt2^0 pt2^post)) (= qq^0 qq^post)) (= qt1^0 qt1^post)) (= qt2^0 qt2^post)) (= sd^0 sd^post)) (= sxn^0 sxn^post)) (= tmp^0 tmp^post)))
    (cfg_trans2 pc^0 l12 pc^post l13 (and (and (and (and (and (and (and (and (and (and (and (and (and (and (and (and (and (= j^0 j^post) (= k^0 k^post)) (= m^0 m^post)) (= m1^0 m1^post)) (= m2^0 m2^post)) (= n^0 n^post)) (= pp^0 pp^post)) (= pt1^0 pt1^post)) (= pt2^0 pt2^post)) (= qq^0 qq^post)) (= qt1^0 qt1^post)) (= qt2^0 qt2^post)) (= sd^0 sd^post)) (= sgd^0 sgd^post)) (= sgn^0 sgn^post)) (= shn^0 shn^post)) (= sxn^0 sxn^post)) (= tmp^0 tmp^post)))
    (cfg_trans2 pc^0 l14 pc^post l11 (and (and (and (and (and (and (and (and (and (and (and (and (and (and (and (and (and (and (<= (+ 1 n^0) (+ 0 m1^0)) (= j^0 j^post)) (= k^0 k^post)) (= m^0 m^post)) (= m1^0 m1^post)) (= m2^0 m2^post)) (= n^0 n^post)) (= pp^0 pp^post)) (= pt1^0 pt1^post)) (= pt2^0 pt2^post)) (= qq^0 qq^post)) (= qt1^0 qt1^post)) (= qt2^0 qt2^post)) (= sd^0 sd^post)) (= sgd^0 sgd^post)) (= sgn^0 sgn^post)) (= shn^0 shn^post)) (= sxn^0 sxn^post)) (= tmp^0 tmp^post)))
    (cfg_trans2 pc^0 l14 pc^post l11 (and (and (and (and (and (and (and (and (and (and (and (and (and (and (and (and (and (and (<= (+ 1 m1^0) (+ 0 n^0)) (= j^0 j^post)) (= k^0 k^post)) (= m^0 m^post)) (= m1^0 m1^post)) (= m2^0 m2^post)) (= n^0 n^post)) (= pp^0 pp^post)) (= pt1^0 pt1^post)) (= pt2^0 pt2^post)) (= qq^0 qq^post)) (= qt1^0 qt1^post)) (= qt2^0 qt2^post)) (= sd^0 sd^post)) (= sgd^0 sgd^post)) (= sgn^0 sgn^post)) (= shn^0 shn^post)) (= sxn^0 sxn^post)) (= tmp^0 tmp^post)))
    (cfg_trans2 pc^0 l14 pc^post l2 (and (and (and (and (and (and (and (and (and (and (and (and (and (and (and (and (and (and (and (<= (+ 0 m1^0) (+ 0 n^0)) (<= (+ 0 n^0) (+ 0 m1^0))) (= j^0 j^post)) (= k^0 k^post)) (= m^0 m^post)) (= m1^0 m1^post)) (= m2^0 m2^post)) (= n^0 n^post)) (= pp^0 pp^post)) (= pt1^0 pt1^post)) (= pt2^0 pt2^post)) (= qq^0 qq^post)) (= qt1^0 qt1^post)) (= qt2^0 qt2^post)) (= sd^0 sd^post)) (= sgd^0 sgd^post)) (= sgn^0 sgn^post)) (= shn^0 shn^post)) (= sxn^0 sxn^post)) (= tmp^0 tmp^post)))
    (cfg_trans2 pc^0 l13 pc^post l14 (and (and (and (and (and (and (and (and (and (and (and (and (and (and (and (and (and (and (<= (+ 1 m^0) (+ 0 j^0)) (= j^0 j^post)) (= k^0 k^post)) (= m^0 m^post)) (= m1^0 m1^post)) (= m2^0 m2^post)) (= n^0 n^post)) (= pp^0 pp^post)) (= pt1^0 pt1^post)) (= pt2^0 pt2^post)) (= qq^0 qq^post)) (= qt1^0 qt1^post)) (= qt2^0 qt2^post)) (= sd^0 sd^post)) (= sgd^0 sgd^post)) (= sgn^0 sgn^post)) (= shn^0 shn^post)) (= sxn^0 sxn^post)) (= tmp^0 tmp^post)))
    (cfg_trans2 pc^0 l13 pc^post l12 (and (and (and (and (and (and (and (and (and (and (and (and (and (and (and (and (and (and (<= (+ 0 j^0) (+ 0 m^0)) (= j^post (+ 1 j^0))) (= k^0 k^post)) (= m^0 m^post)) (= m1^0 m1^post)) (= m2^0 m2^post)) (= n^0 n^post)) (= pp^0 pp^post)) (= pt1^0 pt1^post)) (= pt2^0 pt2^post)) (= qq^0 qq^post)) (= qt1^0 qt1^post)) (= qt2^0 qt2^post)) (= sd^0 sd^post)) (= sgd^0 sgd^post)) (= sgn^0 sgn^post)) (= shn^0 shn^post)) (= sxn^0 sxn^post)) (= tmp^0 tmp^post)))
    (cfg_trans2 pc^0 l15 pc^post l12 (and (and (and (and (and (and (and (and (and (and (and (and (and (and (and (and (and (= j^post 1) (= k^0 k^post)) (= m^0 m^post)) (= m1^0 m1^post)) (= m2^0 m2^post)) (= n^0 n^post)) (= pp^0 pp^post)) (= pt1^0 pt1^post)) (= pt2^0 pt2^post)) (= qq^0 qq^post)) (= qt1^0 qt1^post)) (= qt2^0 qt2^post)) (= sd^0 sd^post)) (= sgd^0 sgd^post)) (= sgn^0 sgn^post)) (= shn^0 shn^post)) (= sxn^0 sxn^post)) (= tmp^0 tmp^post)))
    (cfg_trans2 pc^0 l10 pc^post l9 (and (and (and (and (and (and (and (and (and (and (and (and (and (and (and (and (and (= j^0 j^post) (= k^0 k^post)) (= m^0 m^post)) (= m1^0 m1^post)) (= m2^0 m2^post)) (= n^0 n^post)) (= pp^0 pp^post)) (= pt1^0 pt1^post)) (= pt2^0 pt2^post)) (= qq^0 qq^post)) (= qt1^0 qt1^post)) (= qt2^0 qt2^post)) (= sd^0 sd^post)) (= sgd^0 sgd^post)) (= sgn^0 sgn^post)) (= shn^0 shn^post)) (= sxn^0 sxn^post)) (= tmp^0 tmp^post)))
    (cfg_trans2 pc^0 l16 pc^post l15 (and (and (and (and (and (and (and (and (and (and (and (and (and (and (and (and (and (and (<= 1 (+ 0 sd^0)) (= j^0 j^post)) (= k^0 k^post)) (= m^0 m^post)) (= m1^0 m1^post)) (= m2^0 m2^post)) (= n^0 n^post)) (= pp^0 pp^post)) (= pt1^0 pt1^post)) (= pt2^0 pt2^post)) (= qq^0 qq^post)) (= qt1^0 qt1^post)) (= qt2^0 qt2^post)) (= sd^0 sd^post)) (= sgd^0 sgd^post)) (= sgn^0 sgn^post)) (= shn^0 shn^post)) (= sxn^0 sxn^post)) (= tmp^0 tmp^post)))
    (cfg_trans2 pc^0 l16 pc^post l15 (and (and (and (and (and (and (and (and (and (and (and (and (and (and (and (and (and (and (<= (+ 1 sd^0) 0) (= j^0 j^post)) (= k^0 k^post)) (= m^0 m^post)) (= m1^0 m1^post)) (= m2^0 m2^post)) (= n^0 n^post)) (= pp^0 pp^post)) (= pt1^0 pt1^post)) (= pt2^0 pt2^post)) (= qq^0 qq^post)) (= qt1^0 qt1^post)) (= qt2^0 qt2^post)) (= sd^0 sd^post)) (= sgd^0 sgd^post)) (= sgn^0 sgn^post)) (= shn^0 shn^post)) (= sxn^0 sxn^post)) (= tmp^0 tmp^post)))
    (cfg_trans2 pc^0 l16 pc^post l15 (and (and (and (and (and (and (and (and (and (and (and (and (and (and (and (and (and (and (and (<= (+ 0 sd^0) 0) (<= 0 (+ 0 sd^0))) (= j^0 j^post)) (= k^0 k^post)) (= m^0 m^post)) (= m1^0 m1^post)) (= m2^0 m2^post)) (= n^0 n^post)) (= pp^0 pp^post)) (= pt1^0 pt1^post)) (= pt2^0 pt2^post)) (= qq^0 qq^post)) (= qt1^0 qt1^post)) (= qt2^0 qt2^post)) (= sd^0 sd^post)) (= sgd^0 sgd^post)) (= sgn^0 sgn^post)) (= shn^0 shn^post)) (= sxn^0 sxn^post)) (= tmp^0 tmp^post)))
    (cfg_trans2 pc^0 l8 pc^post l16 (and (and (and (and (and (and (and (and (and (and (and (and (and (and (and (and (and (and (<= (+ 1 m^0) (+ 0 j^0)) (= j^0 j^post)) (= k^0 k^post)) (= m^0 m^post)) (= m1^0 m1^post)) (= m2^0 m2^post)) (= n^0 n^post)) (= pp^0 pp^post)) (= pt1^0 pt1^post)) (= pt2^0 pt2^post)) (= qq^0 qq^post)) (= qt1^0 qt1^post)) (= qt2^0 qt2^post)) (= sd^0 sd^post)) (= sgd^0 sgd^post)) (= sgn^0 sgn^post)) (= shn^0 shn^post)) (= sxn^0 sxn^post)) (= tmp^0 tmp^post)))
    (cfg_trans2 pc^0 l8 pc^post l7 (and (and (and (and (and (and (and (and (and (and (and (and (and (and (and (and (and (and (<= (+ 0 j^0) (+ 0 m^0)) (= sxn^post sxn^post)) (= sd^post sd^post)) (= j^post (+ 1 j^0))) (= k^0 k^post)) (= m^0 m^post)) (= m1^0 m1^post)) (= m2^0 m2^post)) (= n^0 n^post)) (= pp^0 pp^post)) (= pt1^0 pt1^post)) (= pt2^0 pt2^post)) (= qq^0 qq^post)) (= qt1^0 qt1^post)) (= qt2^0 qt2^post)) (= sgd^0 sgd^post)) (= sgn^0 sgn^post)) (= shn^0 shn^post)) (= tmp^0 tmp^post)))
    (cfg_trans2 pc^0 l5 pc^post l3 (and (and (and (and (and (and (and (and (and (and (and (and (and (and (and (and (and (= j^0 j^post) (= k^0 k^post)) (= m^0 m^post)) (= m1^0 m1^post)) (= m2^0 m2^post)) (= n^0 n^post)) (= pp^0 pp^post)) (= pt1^0 pt1^post)) (= pt2^0 pt2^post)) (= qq^0 qq^post)) (= qt1^0 qt1^post)) (= qt2^0 qt2^post)) (= sd^0 sd^post)) (= sgd^0 sgd^post)) (= sgn^0 sgn^post)) (= shn^0 shn^post)) (= sxn^0 sxn^post)) (= tmp^0 tmp^post)))
    (cfg_trans2 pc^0 l6 pc^post l2 (and (and (and (and (and (and (and (and (and (and (and (and (and (and (and (and (and (and (<= (+ 1 n^0) (+ 0 m^0)) (= j^0 j^post)) (= k^0 k^post)) (= m^0 m^post)) (= m1^0 m1^post)) (= m2^0 m2^post)) (= n^0 n^post)) (= pp^0 pp^post)) (= pt1^0 pt1^post)) (= pt2^0 pt2^post)) (= qq^0 qq^post)) (= qt1^0 qt1^post)) (= qt2^0 qt2^post)) (= sd^0 sd^post)) (= sgd^0 sgd^post)) (= sgn^0 sgn^post)) (= shn^0 shn^post)) (= sxn^0 sxn^post)) (= tmp^0 tmp^post)))
    (cfg_trans2 pc^0 l6 pc^post l7 (and (and (and (and (and (and (and (and (and (and (and (and (and (and (and (and (and (and (<= (+ 0 m^0) (+ 0 n^0)) (= m1^post (+ 1 m^0))) (= sxn^post sxn^post)) (= sd^post sd^post)) (= j^post 1)) (= k^0 k^post)) (= m^0 m^post)) (= m2^0 m2^post)) (= n^0 n^post)) (= pp^0 pp^post)) (= pt1^0 pt1^post)) (= pt2^0 pt2^post)) (= qq^0 qq^post)) (= qt1^0 qt1^post)) (= qt2^0 qt2^post)) (= sgd^0 sgd^post)) (= sgn^0 sgn^post)) (= shn^0 shn^post)) (= tmp^0 tmp^post)))
    (cfg_trans2 pc^0 l1 pc^post l4 (and (and (and (and (and (and (and (and (and (and (and (and (and (and (and (and (and (= m^post 1) (= j^0 j^post)) (= k^0 k^post)) (= m1^0 m1^post)) (= m2^0 m2^post)) (= n^0 n^post)) (= pp^0 pp^post)) (= pt1^0 pt1^post)) (= pt2^0 pt2^post)) (= qq^0 qq^post)) (= qt1^0 qt1^post)) (= qt2^0 qt2^post)) (= sd^0 sd^post)) (= sgd^0 sgd^post)) (= sgn^0 sgn^post)) (= shn^0 shn^post)) (= sxn^0 sxn^post)) (= tmp^0 tmp^post)))
    (cfg_trans2 pc^0 l17 pc^post l0 (and (and (and (and (and (and (and (and (and (and (and (and (and (and (and (and (and (= j^0 j^post) (= k^0 k^post)) (= m^0 m^post)) (= m1^0 m1^post)) (= m2^0 m2^post)) (= n^0 n^post)) (= pp^0 pp^post)) (= pt1^0 pt1^post)) (= pt2^0 pt2^post)) (= qq^0 qq^post)) (= qt1^0 qt1^post)) (= qt2^0 qt2^post)) (= sd^0 sd^post)) (= sgd^0 sgd^post)) (= sgn^0 sgn^post)) (= shn^0 shn^post)) (= sxn^0 sxn^post)) (= tmp^0 tmp^post)))
    (cfg_trans2 pc^0 l18 pc^post l17 (and (and (and (and (and (and (and (and (and (and (and (and (and (and (and (and (and (= j^0 j^post) (= k^0 k^post)) (= m^0 m^post)) (= m1^0 m1^post)) (= m2^0 m2^post)) (= n^0 n^post)) (= pp^0 pp^post)) (= pt1^0 pt1^post)) (= pt2^0 pt2^post)) (= qq^0 qq^post)) (= qt1^0 qt1^post)) (= qt2^0 qt2^post)) (= sd^0 sd^post)) (= sgd^0 sgd^post)) (= sgn^0 sgn^post)) (= shn^0 shn^post)) (= sxn^0 sxn^post)) (= tmp^0 tmp^post)))
  )
)
